!Finas/Lucas/src/implementacao.out
Problem:    implementacao
Rows:       49
Columns:    54 (30 integer, 30 binary)
Non-zeros:  210
Status:     INTEGER OPTIMAL
Objective:  z = 7535 (MINimum)

   No.   Row name        Activity     Lower bound   Upper bound
------ ------------    ------------- ------------- -------------
     1 z                          35                             
     2 r1[1]                       1             1             = 
     3 r1[2]                       1             1             = 
     4 r1[3]                       1             1             = 
     5 r2[1,1]                     0            -0             = 
     6 r2[1,2]                     0            -0             = 
     7 r2[1,3]                     0            -0             = 
     8 r2[2,1]                     0            -0             = 
     9 r2[2,2]                     0            -0             = 
    10 r2[2,3]                     0            -0             = 
    11 r3[1]                      20            20             = 
    12 r3[2]                      30            30             = 
    13 r3[3]                      15            15             = 
    14 r4[0,1]                   -15                          -0 
    15 r4[1,0]                     0                          -0 
    16 r4[0,2]                     0                          -0 
    17 r4[2,0]                     0                          -0 
    18 r4[0,3]                     0                          -0 
    19 r4[3,0]                     0                          -0 
    20 r4[1,2]                     0                          -0 
    21 r4[2,1]                     0                          -0 
    22 r4[1,3]                     0                          -0 
    23 r4[3,1]                     0                          -0 
    24 r4[2,3]                     0                          -0 
    25 r4[3,2]                     0                          -0 
    26 r5[0,1,1]                 -10                          -0 
    27 r5[0,1,2]                   0                          -0 
    28 r5[1,0,1]                   0                          -0 
    29 r5[1,0,2]                   0                          -0 
    30 r5[0,2,1]                 -15                          -0 
    31 r5[0,2,2]                   0                          -0 
    32 r5[2,0,1]                 -15                          -0 
    33 r5[2,0,2]                   0                          -0 
    34 r5[0,3,1]                   0                          -0 
    35 r5[0,3,2]                   0                          -0 
    36 r5[3,0,1]                 -30                          -0 
    37 r5[3,0,2]                   0                          -0 
    38 r5[1,2,1]                   0                          -0 
    39 r5[1,2,2]                   0                          -0 
    40 r5[2,1,1]                   0                          -0 
    41 r5[2,1,2]                   0                          -0 
    42 r5[1,3,1]                 -10                          -0 
    43 r5[1,3,2]                   0                          -0 
    44 r5[3,1,1]                   0                          -0 
    45 r5[3,1,2]                   0                          -0 
    46 r5[2,3,1]                   0                          -0 
    47 r5[2,3,2]                   0                          -0 
    48 r5[3,2,1]                   0                          -0 
    49 r5[3,2,2]                   0                          -0 

   No. Column name       Activity     Lower bound   Upper bound
------ ------------    ------------- ------------- -------------
     1 y[0,1,1]                   35             0               
     2 y[1,0,1]                    0             0               
     3 y[0,2,1]                   30             0               
     4 y[2,0,1]                    0             0               
     5 y[0,3,1]                    0             0               
     6 y[3,0,1]                    0             0               
     7 y[1,2,1]                    0             0               
     8 y[2,1,1]                    0             0               
     9 y[1,3,1]                   15             0               
    10 y[3,1,1]                    0             0               
    11 y[2,3,1]                    0             0               
    12 y[3,2,1]                    0             0               
    13 y[0,1,2]                    0             0               
    14 y[1,0,2]                    0             0               
    15 y[0,2,2]                    0             0               
    16 y[2,0,2]                    0             0               
    17 y[0,3,2]                    0             0               
    18 y[3,0,2]                    0             0               
    19 y[1,2,2]                    0             0               
    20 y[2,1,2]                    0             0               
    21 y[1,3,2]                    0             0               
    22 y[3,1,2]                    0             0               
    23 y[2,3,2]                    0             0               
    24 y[3,2,2]                    0             0               
    25 x[0,1,1]     *              1             0             1 
    26 x[1,1,1]     *              0             0             1 
    27 x[2,1,1]     *              0             0             1 
    28 x[3,1,1]     *              0             0             1 
    29 x[0,1,2]     *              0             0             1 
    30 x[1,1,2]     *              0             0             1 
    31 x[2,1,2]     *              0             0             1 
    32 x[3,1,2]     *              0             0             1 
    33 x[0,2,1]     *              1             0             1 
    34 x[1,2,1]     *              0             0             1 
    35 x[2,2,1]     *              0             0             1 
    36 x[3,2,1]     *              0             0             1 
    37 x[0,2,2]     *              0             0             1 
    38 x[1,2,2]     *              0             0             1 
    39 x[2,2,2]     *              0             0             1 
    40 x[3,2,2]     *              0             0             1 
    41 x[0,3,1]     *              0             0             1 
    42 x[1,3,1]     *              1             0             1 
    43 x[2,3,1]     *              0             0             1 
    44 x[3,3,1]     *              0             0             1 
    45 x[0,3,2]     *              0             0             1 
    46 x[1,3,2]     *              0             0             1 
    47 x[2,3,2]     *              0             0             1 
    48 x[3,3,2]     *              0             0             1 
    49 x[1,0,1]     *              0             0             1 
    50 x[2,0,1]     *              1             0             1 
    51 x[3,0,1]     *              1             0             1 
    52 x[1,0,2]     *              0             0             1 
    53 x[2,0,2]     *              0             0             1 
    54 x[3,0,2]     *              0             0             1 

Integer feasibility conditions:

KKT.PE: max.abs.err = 7.11e-15 on row 11
        max.rel.err = 1.00e-16 on row 11
        High quality

KKT.PB: max.abs.err = 1.94e-14 on column 24
        max.rel.err = 1.94e-14 on column 24
        High quality

End of output
